CMD:
./solvers/bin/cadical --plain --no-reduce -t 1600 ./data/cnfs//gen39/gen39.72.cnf

c --- [ banner ] -------------------------------------------------------------
c 
c CaDiCaL SAT Solver
c Copyright (c) 2016-2024
c A. Biere, M. Fleury, N. Froleyks, K. Fazekas, F. Pollitt, T. Faller
c JKU Linz, University of Freiburg, TU Wien
c 
c Version 2.1.3 5296d3d2a9bf48c154ab2acb5e44625776d821bf
c g++ (Gentoo 12.3.1_p20230526 p2) 12.3.1 20230526 -Wall -Wextra -O3 -DNDEBUG
c Sat Aug 9 07:26:21 PDT 2025 Linux cedar2.int.cedar.computecanada.ca 5.14.0-362.24.2.el9_3.x86_64 x86_64
c 
c --- [ limit ] --------------------------------------------------------------
c 
c setting time limit to 1600 seconds real time (due to '-t 1600')
c 
c --- [ parsing input ] ------------------------------------------------------
c 
c reading DIMACS file from './data/cnfs//gen39/gen39.72.cnf'
c opening file to read './data/cnfs//gen39/gen39.72.cnf'
c found 'p cnf 430628 1211949' header
c parsed 1211949 clauses in 0.18 seconds process time
c 
c --- [ options ] ------------------------------------------------------------
c 
c   --compact=false                (different from default 'true')
c   --decompose=false              (different from default 'true')
c   --deduplicate=false            (different from default 'true')
c   --elim=false                   (different from default 'true')
c   --probe=false                  (different from default 'true')
c   --reduce=false                 (different from default 'true')
c   --subsume=false                (different from default 'true')
c   --ternary=false                (different from default 'true')
c   --transred=false               (different from default 'true')
c   --vivify=false                 (different from default 'true')
c 
c --- [ solving ] ------------------------------------------------------------
c 
c time measured in process time since initialization
c 
c  seconds   reductions  redundant   irredundant
c          MB    restarts       trail        variables
c           level   conflicts       glue           remaining
c 
c *  0.18 194  0 0   0    0    0  0% 0 1211684 429597 100%
c {  0.22 199  0 0   0    0    0  0% 0 1211684 429597 100%
c }  0.43 205 8165 0  41 1001  867 34% 2 1211684 429597 100%
c [  0.43 205  0 0  41 1001  867  0% 0 1211684 429597 100%
c O  0.50 205 24438 0  41 1002  868 99% 1 1211684 429597 100%
c i  0.50 205 24110 0  41 1007  871 99% 2 1211684 429175 100%
c i  0.50 205 23987 0  41 1010  872 98% 1 1211684 429172 100%
c i  0.50 205 23801 0  41 1021  881 98% 2 1211684 429155 100%
c i  0.50 205 23605 0  41 1040  896 97% 2 1211684 429144 100%
c i  0.51 205 23322 0  41 1087  939 96% 2 1211684 429133 100%
c i  0.51 205 23197 0  41 1112  960 96% 2 1211684 429122 100%
c i  0.51 205 23075 0  41 1134  977 95% 2 1211684 429111 100%
c i  0.51 205 22602 0  41 1227 1059 94% 2 1211684 429098 100%
c i  0.51 205 22408 0  41 1280 1099 93% 3 1211684 429087 100%
c i  0.51 205 22282 0  41 1313 1125 93% 3 1211684 429076 100%
c i  0.52 205 22199 0  41 1331 1140 93% 3 1211684 429065 100%
c i  0.52 205 22098 0  41 1351 1156 92% 3 1211684 429054 100%
c i  0.52 205 21980 0  41 1374 1176 92% 3 1211684 429043 100%
c i  0.52 205 21825 0  41 1404 1199 91% 3 1211684 429032 100%
c i  0.52 205 21706 0  41 1427 1218 91% 3 1211684 429021 100%
c 
c  seconds      reductions  redundant   irredundant
c          MB       restarts       trail        variables
c             level    conflicts       glue           remaining
c 
c i  0.52 205 21589 0  41 1449 1235 91% 3 1211684 429010 100%
c i  0.52 205 21474 0  41 1482 1251 90% 3 1211684 428999 100%
c i  0.52 205 21194 0  41 1532 1295 89% 3 1211684 428988 100%
c i  0.52 205 20939 0  41 1580 1336 88% 3 1211684 428977 100%
c i  0.53 205 20841 0  41 1597 1350 88% 3 1211684 428966 100%
c i  0.53 205 20616 0  41 1636 1386 88% 3 1211684 428955 100%
c i  0.53 205 20599 0  41 1639 1388 87% 3 1211684 428946 100%
c i  0.53 205 20143 0  41 1724 1467 86% 3 1211684 428933 100%
c i  0.54 205 19286 0  41 1906 1616 84% 3 1211684 428920 100%
c i  0.54 205 19264 0  41 1911 1611 84% 3 1211684 428909 100%
c i  0.54 205 19260 0  41 1912 1611 84% 3 1211684 428900 100%
c i  0.54 205 19198 0  41 1927 1622 83% 3 1211684 428889 100%
c i  0.54 205 18982 0  41 1978 1668 83% 3 1211684 428878 100%
c i  0.54 205 18796 0  41 2023 1709 82% 3 1211684 428867 100%
c i  0.54 205 18737 0  41 2037 1721 82% 3 1211684 428856 100%
c i  0.54 205 18657 0  41 2056 1736 82% 3 1211684 428845 100%
c i  0.54 205 18556 0  41 2079 1756 81% 3 1211684 428834 100%
c i  0.55 205 18447 0  41 2103 1776 81% 3 1211684 428823 100%
c i  0.65 205 13046 0  42 2719 2320 61% 2 1211684 428813 100%
c ]  0.66 205 11202 0  42 3011 2540 52% 3 1211684 428813 100%
c 
c  seconds     reductions  redundant   irredundant
c          MB      restarts       trail        variables
c            level    conflicts       glue           remaining
c 
c {  0.66 205 8165 0  42 3011 2540 34% 2 1211684 428813 100%
c F  0.66 205 8156 0  42 3012 2541 34% 2 1211684 428806 100%
c i  0.68 205 7988 0  48 3033 2560 33% 2 1211684 428745 100%
c i  0.69 205 7531 0  54 3091 2617 32% 2 1211684 428721 100%
c i  0.72 205 6853 0  80 3205 2706 29% 2 1211684 428713 100%
c i  0.83 205 5118 0 138 3695 3073 23% 3 1211684 428657 100%
c i  0.86 205 4757 0 168 3845 3185 22% 3 1211684 428615 100%
c i  0.87 205 4539 0 181 4010 3259 20% 3 1211684 428592 100%
c i  0.90 205 4210 0 207 4161 3387 19% 3 1211684 428567 100%
c i  0.95 205 3552 0 225 4592 3726 17% 3 1211684 428546 100%
c i  0.98 206 3297 0 259 4774 3893 16% 4 1211684 428521 100%
c i  1.01 206 2774 0 271 5297 4307 15% 4 1211684 428381 99%
c i  1.04 206 2499 0 301 5661 4593 14% 4 1211684 428352 99%
c i  1.05 206 2466 0 312 5714 4632 14% 4 1211684 428302 99%
c #  1.08 206 2283 0 327 6013 4873 13% 4 1211684 428302 99%
c i  1.13 206 2066 0 340 6471 5213 12% 4 1211684 428273 99%
c i  1.13 206 2065 0 340 6472 5213 12% 4 1211684 428248 99%
c i  1.13 206 2064 0 340 6474 5214 12% 4 1211684 428222 99%
c }  1.14 206 1864 0 340 7012 5602 11% 4 1211684 428222 99%
c [  1.14 206 11202 0 340 7012 5602 52% 3 1211684 428222 99%
c 
c  seconds      reductions  redundant   irredundant
c          MB       restarts       trail        variables
c             level    conflicts       glue           remaining
c 
c i  1.16 206 10595 0 340 7139 5694 49% 3 1211684 428096 99%
c i  1.17 206 10317 0 340 7196 5742 48% 3 1211684 428066 99%
c i  1.18 206 10014 0 340 7261 5794 47% 3 1211684 428044 99%
c i  1.43 206 4661 0 342 9685 7712 25% 5 1211684 427751 99%
c i  1.43 206 4656 0 342 9690 7715 25% 5 1211684 427750 99%
c i  1.43 206 4655 0 342 9691 7715 25% 5 1211684 427718 99%
c ]  1.44 206 4625 0 342 9721 7736 24% 5 1211684 426495 99%
c 0  1.44 206 4625 0 342 9721 7736 24% 5 1211684 426495 99%
c 
c --- [ result ] -------------------------------------------------------------
c 
s UNSATISFIABLE
c 
c --- [ run-time profiling ] -------------------------------------------------
c 
c process time taken by individual solving procedures
c (percentage relative to process time for solving)
c 
c         1.26   99.99% search
c         0.69   54.90% unstable
c         0.53   41.90% stable
c         0.18   14.24% parse
c         0.04    3.19% lucky
c         0.00    0.00% simplify
c   =================================
c         1.26   87.51% solve
c 
c last line shows process time for solving
c (percentage relative to total process time)
c 
c --- [ statistics ] ---------------------------------------------------------
c 
c chronological:              5519        56.77 %  of conflicts
c conflicts:                  9721      7738.36    per second
c decisions:                167132    133044.74    per second
c fixed:                      3877         0.90 %  of all variables
c learned:                    8594        88.41 %  per conflict
c learned_lits:             170890       100.00 %  learned literals
c minimized:                     0         0.00 %  learned literals
c shrunken:                  49241        28.81 %  learned literals
c minishrunken:               8735         5.11 %  learned literals
c otfs:                        283         2.91 %  of conflict
c propagations:           23426714        18.65 M  per second
c rephased:                      3      3240.33    interval
c restarts:                    342        28.42    interval
c stabilizing:                   2        48.51 %  of conflicts
c subsumed:                    805         0.07 %  of all clauses
c strengthened:                277         0.02 %  of all clauses
c 
c seconds are measured in process time for solving
c 
c --- [ resources ] ----------------------------------------------------------
c 
c total process time since initialization:         1.44    seconds
c total real time since initialization:            1.45    seconds
c maximum resident set size of process:          204.91    MB
c 
c --- [ shutting down ] ------------------------------------------------------
c 
c exit 20
